<number of tasks>
58

<cycle time>
65

<task times>
1 10
2 53
3 41
4 36
5 35
6 17
7 34
8 23
9 14
10 52
11 33
12 34
13 12
14 52
15 12
16 33
17 44
18 7
19 15
20 13
21 29
22 37
23 43
24 23
25 24
26 9
27 16
28 12
29 26
30 22
31 51
32 47
33 34
34 23
35 12
36 52
37 12
38 33
39 44
40 7
41 15
42 13
43 29
44 37
45 43
46 23
47 24
48 9
49 16
50 12
51 26
52 12
53 52
54 12
55 33
56 44
57 7
58 15

<precedence relations>
1,9
2,25
3,21
3,22
4,10
5,36
6,23
6,24
7,43
8,44
9,11
11,13
11,14
11,15
12,17
13,17
14,17
15,17
16,18
17,20
18,19
19,23
20,21
20,25
21,26
21,44
22,27
23,31
24,31
25,38
26,29
27,30
28,32
28,33
29,31
30,34
31,36
32,45
33,35
34,36
35,43
36,37
36,38
37,39
37,40
37,41
38,52
39,43
40,43
41,42
42,43
43,45
44,45
45,46
45,48
45,49
46,47
46,50
47,51
48,55
49,58
50,58
51,52
52,53
53,54
54,55
54,56
55,57
56,57
57,58

<setup times forward>
1,2:3
1,3:5
1,4:1
1,5:3
1,6:2
1,7:6
1,8:5
1,10:4
1,12:2
1,18:2
1,19:6
1,22:4
1,23:1
1,27:6
1,28:3
1,30:1
1,32:6
1,33:2
1,34:2
1,35:4
2,1:3
2,3:2
2,4:4
2,5:6
2,6:1
2,7:9
2,8:2
2,9:3
2,10:7
2,11:3
2,12:1
2,13:1
2,14:5
2,15:5
2,16:3
2,17:2
2,18:5
2,19:9
2,20:2
2,21:6
2,22:7
2,23:4
2,24:3
2,25:5
2,26:3
2,27:9
2,29:7
2,30:4
2,31:1
2,32:9
2,33:5
2,34:1
2,35:1
2,36:10
2,37:10
2,39:2
2,40:2
2,41:9
2,42:2
2,43:4
2,44:1
2,45:2
2,46:1
2,47:1
2,48:5
2,49:2
2,50:7
2,51:1
3,1:5
3,2:2
3,4:6
3,5:8
3,6:3
3,7:11
3,9:5
3,10:9
3,11:5
3,12:3
3,13:3
3,14:7
3,15:7
3,16:5
3,17:4
3,18:7
3,19:11
3,20:4
3,21:8
3,22:9
3,23:6
3,24:5
3,25:7
3,28:2
3,32:11
3,33:7
3,35:1
4,1:1
4,2:4
4,3:6
4,5:2
4,6:3
4,7:5
4,8:6
4,9:1
4,10:3
4,11:1
4,12:3
4,13:3
4,14:1
4,15:1
4,16:1
4,17:2
4,18:1
4,19:5
4,20:2
4,21:2
4,22:3
4,24:1
4,25:1
4,26:1
4,27:5
4,28:4
4,29:3
4,31:5
4,32:5
4,33:1
4,34:3
4,35:5
4,36:6
4,37:6
4,38:5
4,39:6
4,40:6
4,41:5
4,42:6
4,44:3
4,45:2
4,46:5
4,47:5
4,48:1
4,49:2
4,50:3
4,51:5
4,52:4
4,53:4
4,55:1
4,57:1
4,58:1
5,1:3
5,2:6
5,3:8
5,4:2
5,6:5
5,7:3
5,8:8
5,9:3
5,10:1
5,11:3
5,12:5
5,13:5
5,14:1
5,15:1
5,16:3
5,17:4
5,18:1
5,19:3
5,20:4
5,22:1
5,23:2
5,24:3
5,25:1
5,26:3
5,27:3
5,28:6
5,29:1
5,30:2
5,31:7
5,32:3
5,33:1
5,34:5
5,35:7
5,36:4
5,44:5
6,1:2
6,2:1
6,3:3
6,4:3
6,5:5
6,7:8
6,8:3
6,9:2
6,10:6
6,11:2
6,14:4
6,15:4
6,16:2
6,17:1
6,18:4
6,19:8
6,20:1
6,21:5
6,22:6
6,23:3
6,24:2
6,25:4
6,26:2
6,27:8
6,28:1
6,29:6
6,30:3
6,32:8
6,33:4
6,35:2
7,1:6
7,2:9
7,3:11
7,4:5
7,5:3
7,6:8
7,8:11
7,9:6
7,10:2
7,11:6
7,12:8
7,13:8
7,14:4
7,15:4
7,16:6
7,17:7
7,18:4
7,20:7
7,21:3
7,22:2
7,23:5
7,24:6
7,25:4
7,26:6
7,28:9
7,29:2
7,30:5
7,31:10
7,33:4
7,34:8
7,35:10
7,36:1
7,37:1
7,38:10
7,39:11
7,40:11
7,42:11
7,43:5
7,44:8
8,1:5
8,2:2
8,4:6
8,5:8
8,6:3
8,7:11
8,9:5
8,10:9
8,11:5
8,12:3
8,13:3
8,14:7
8,15:7
8,16:5
8,17:4
8,18:7
8,19:11
8,20:4
8,21:8
8,22:9
8,23:6
8,24:5
8,25:7
8,26:5
8,27:11
8,28:2
8,29:9
8,30:6
8,31:1
8,32:11
8,33:7
8,34:3
8,35:1
8,36:12
8,37:12
8,38:1
8,41:11
8,43:6
8,44:3
9,2:3
9,3:5
9,4:1
9,5:3
9,6:2
9,7:6
9,8:5
9,10:4
9,12:2
9,18:2
9,19:6
9,22:4
9,23:1
9,27:6
9,28:3
9,30:1
9,32:6
9,33:2
9,34:2
9,35:4
10,1:4
10,2:7
10,3:9
10,5:1
10,6:6
10,7:2
10,8:9
10,9:4
10,11:4
10,12:6
10,13:6
10,14:2
10,15:2
10,16:4
10,17:5
10,18:2
10,19:2
10,20:5
10,21:1
10,23:3
10,24:4
10,25:2
10,26:4
10,27:2
10,28:7
10,30:3
10,31:8
10,32:2
10,33:2
10,34:6
10,35:8
10,36:3
10,37:3
10,38:8
10,39:9
10,40:9
10,41:2
10,42:9
10,43:3
10,44:6
10,45:5
10,46:8
10,47:8
10,48:2
10,49:5
10,51:8
10,52:7
10,53:7
10,54:3
10,55:2
10,56:3
10,57:2
10,58:2
11,2:3
11,3:5
11,4:1
11,5:3
11,6:2
11,7:6
11,8:5
11,10:4
11,12:2
11,13:2
11,14:2
11,15:2
11,18:2
11,19:6
11,22:4
11,23:1
11,27:6
11,28:3
11,30:1
11,32:6
11,33:2
11,34:2
11,35:4
12,1:2
12,2:1
12,3:3
12,4:3
12,5:5
12,7:8
12,8:3
12,9:2
12,10:6
12,11:2
12,14:4
12,15:4
12,16:2
12,17:1
12,18:4
12,19:8
12,22:6
12,23:3
12,24:2
12,27:8
12,28:1
12,30:3
12,32:8
12,33:4
12,35:2
13,2:1
13,3:3
13,4:3
13,5:5
13,7:8
13,8:3
13,10:6
13,14:4
13,15:4
13,16:2
13,17:1
13,18:4
13,19:8
13,22:6
13,23:3
13,24:2
13,27:8
13,28:1
13,30:3
13,32:8
13,33:4
13,35:2
14,2:5
14,3:7
14,4:1
14,5:1
14,6:4
14,7:4
14,8:7
14,10:2
14,12:4
14,13:4
14,16:2
14,17:3
14,19:4
14,22:2
14,23:1
14,24:2
14,27:4
14,28:5
14,30:1
14,32:4
14,34:4
14,35:6
15,2:5
15,3:7
15,4:1
15,5:1
15,6:4
15,7:4
15,8:7
15,10:2
15,12:4
15,13:4
15,16:2
15,17:3
15,19:4
15,22:2
15,23:1
15,24:2
15,27:4
15,28:5
15,30:1
15,32:4
15,34:4
15,35:6
16,2:3
16,3:5
16,4:1
16,5:3
16,6:2
16,7:6
16,8:5
16,10:4
16,12:2
16,13:2
16,14:2
16,15:2
16,17:1
16,18:2
16,20:1
16,21:3
16,22:4
16,25:2
16,27:6
16,28:3
16,29:4
16,30:1
16,32:6
16,33:2
16,34:2
16,35:4
16,44:2
17,2:2
17,3:4
17,4:2
17,5:4
17,6:1
17,7:7
17,8:4
17,10:5
17,16:1
17,18:3
17,19:7
17,22:5
17,23:2
17,24:1
17,27:7
17,28:2
17,30:2
17,32:7
17,33:3
17,34:1
17,35:3
18,1:2
18,2:5
18,3:7
18,4:1
18,5:1
18,6:4
18,7:4
18,8:7
18,9:2
18,10:2
18,11:2
18,12:4
18,13:4
18,17:3
18,19:4
18,20:3
18,21:1
18,22:2
18,24:2
18,26:2
18,27:4
18,28:5
18,29:2
18,30:1
18,32:4
18,34:4
18,35:6
18,44:4
19,1:6
19,2:9
19,3:11
19,4:5
19,5:3
19,6:8
19,8:11
19,9:6
19,10:2
19,11:6
19,12:8
19,13:8
19,14:4
19,15:4
19,17:7
19,20:7
19,21:3
19,22:2
19,23:5
19,24:6
19,25:4
19,26:6
19,28:9
19,29:2
19,30:5
19,33:4
19,34:8
19,35:10
19,44:8
20,2:2
20,3:4
20,4:2
20,5:4
20,6:1
20,7:7
20,8:4
20,10:5
20,16:1
20,18:3
20,19:7
20,21:4
20,22:5
20,23:2
20,24:1
20,25:3
20,27:7
20,28:2
20,30:2
20,32:7
20,33:3
20,34:1
20,35:3
21,2:6
21,4:2
21,6:5
21,7:3
21,8:8
21,10:1
21,16:3
21,18:1
21,19:3
21,22:1
21,23:2
21,24:3
21,25:1
21,26:3
21,27:3
21,28:6
21,30:2
21,32:3
21,33:1
21,34:5
21,35:7
21,44:5
22,1:4
22,2:7
22,4:3
22,5:1
22,6:6
22,7:2
22,8:9
22,9:4
22,11:4
22,12:6
22,13:6
22,14:2
22,15:2
22,16:4
22,17:5
22,18:2
22,19:2
22,20:5
22,21:1
22,23:3
22,24:4
22,25:2
22,26:4
22,27:2
22,28:7
22,31:8
22,32:2
22,33:2
22,35:8
22,44:6
23,1:1
23,2:4
23,3:6
23,5:2
23,7:5
23,8:6
23,9:1
23,10:3
23,11:1
23,12:3
23,13:3
23,14:1
23,15:1
23,17:2
23,20:2
23,21:2
23,22:3
23,24:1
23,25:1
23,26:1
23,27:5
23,28:4
23,29:3
23,31:5
23,32:5
23,33:1
23,34:3
23,35:5
23,44:3
24,2:3
24,3:5
24,4:1
24,5:3
24,7:6
24,8:5
24,10:4
24,12:2
24,13:2
24,14:2
24,15:2
24,17:1
24,18:2
24,19:6
24,20:1
24,21:3
24,22:4
24,23:1
24,25:2
24,27:6
24,28:3
24,29:4
24,30:1
24,31:4
24,32:6
24,33:2
24,34:2
24,35:4
24,44:2
25,3:7
25,4:1
25,5:1
25,6:4
25,7:4
25,8:7
25,10:2
25,16:2
25,19:4
25,21:1
25,22:2
25,23:1
25,24:2
25,26:2
25,27:4
25,28:5
25,29:2
25,30:1
25,31:6
25,32:4
25,34:4
25,35:6
25,36:5
25,37:5
25,38:6
25,39:7
25,40:7
25,41:4
25,42:7
25,43:1
25,44:4
25,45:3
25,46:6
25,47:6
25,49:3
25,50:2
25,51:6
26,2:3
26,4:1
26,5:3
26,6:2
26,7:6
26,8:5
26,10:4
26,18:2
26,19:6
26,22:4
26,23:1
26,25:2
26,27:6
26,28:3
26,29:4
26,30:1
26,32:6
26,33:2
26,34:2
26,35:4
26,44:2
27,1:6
27,2:9
27,4:5
27,5:3
27,6:8
27,8:11
27,9:6
27,10:2
27,11:6
27,12:8
27,13:8
27,14:4
27,15:4
27,16:6
27,17:7
27,18:4
27,20:7
27,21:3
27,23:5
27,24:6
27,25:4
27,26:6
27,28:9
27,29:2
27,30:5
27,31:10
27,33:4
27,35:10
27,44:8
28,1:3
28,3:2
28,4:4
28,5:6
28,6:1
28,7:9
28,8:2
28,9:3
28,10:7
28,11:3
28,12:1
28,13:1
28,14:5
28,15:5
28,16:3
28,17:2
28,18:5
28,19:9
28,20:2
28,21:6
28,22:7
28,23:4
28,24:3
28,25:5
28,26:3
28,27:9
28,29:7
28,30:4
28,31:1
28,32:9
28,33:5
28,34:1
28,36:10
28,37:10
28,38:1
28,39:2
28,40:2
28,41:9
28,42:2
28,44:1
29,2:7
29,4:3
29,5:1
29,6:6
29,7:2
29,8:9
29,16:4
29,18:2
29,19:2
29,23:3
29,24:4
29,25:2
29,27:2
29,28:7
29,30:3
29,31:8
29,32:2
29,33:2
29,34:6
29,35:8
29,44:6
30,1:1
30,2:4
30,5:2
30,6:3
30,7:5
30,8:6
30,9:1
30,10:3
30,11:1
30,12:3
30,13:3
30,14:1
30,15:1
30,16:1
30,17:2
30,18:1
30,19:5
30,20:2
30,21:2
30,24:1
30,25:1
30,26:1
30,28:4
30,29:3
30,31:5
30,32:5
30,33:1
30,34:3
30,35:5
30,44:3
31,2:1
31,4:5
31,5:7
31,7:10
31,8:1
31,10:8
31,22:8
31,25:6
31,27:10
31,28:1
31,30:5
31,32:10
31,33:6
31,34:2
31,36:11
31,44:2
32,1:6
32,2:9
32,3:11
32,4:5
32,5:3
32,6:8
32,8:11
32,9:6
32,10:2
32,11:6
32,12:8
32,13:8
32,14:4
32,15:4
32,16:6
32,17:7
32,18:4
32,20:7
32,21:3
32,22:2
32,23:5
32,24:6
32,25:4
32,26:6
32,29:2
32,30:5
32,31:10
32,33:4
32,34:8
32,35:10
32,36:1
32,37:1
32,38:10
32,39:11
32,40:11
32,42:11
32,43:5
32,44:8
32,45:7
33,1:2
33,2:5
33,3:7
33,4:1
33,5:1
33,6:4
33,7:4
33,8:7
33,9:2
33,10:2
33,11:2
33,12:4
33,13:4
33,16:2
33,17:3
33,19:4
33,20:3
33,21:1
33,22:2
33,23:1
33,24:2
33,26:2
33,27:4
33,29:2
33,30:1
33,31:6
33,32:4
33,34:4
33,35:6
33,36:5
33,37:5
33,38:6
33,39:7
33,40:7
33,41:4
33,42:7
33,44:4
34,1:2
34,2:1
34,4:3
34,5:5
34,7:8
34,8:3
34,9:2
34,10:6
34,11:2
34,14:4
34,15:4
34,16:2
34,17:1
34,18:4
34,19:8
34,20:1
34,21:5
34,23:3
34,24:2
34,25:4
34,26:2
34,28:1
34,29:6
34,31:2
34,32:8
34,33:4
34,35:2
34,36:9
35,1:4
35,2:1
35,3:1
35,4:5
35,5:7
35,6:2
35,7:10
35,8:1
35,9:4
35,10:8
35,11:4
35,12:2
35,13:2
35,14:6
35,15:6
35,16:4
35,17:3
35,18:6
35,19:10
35,20:3
35,21:7
35,22:8
35,23:5
35,24:4
35,25:6
35,26:4
35,27:10
35,29:8
35,30:5
35,32:10
35,34:2
35,36:11
35,37:11
35,39:1
35,40:1
35,41:10
35,42:1
35,43:5
35,44:2
36,2:10
36,4:6
36,7:1
36,8:12
36,10:3
36,25:5
36,28:10
36,32:1
36,33:5
36,35:11
36,38:11
36,44:9
37,2:10
37,4:6
37,7:1
37,8:12
37,10:3
37,25:5
37,28:10
37,32:1
37,33:5
37,35:11
37,38:11
37,39:12
37,40:12
37,41:1
37,44:9
38,4:5
38,7:10
38,8:1
38,10:8
38,28:1
38,32:10
38,33:6
38,37:11
38,39:1
38,40:1
38,41:10
38,42:1
38,43:5
38,44:2
38,45:3
38,48:6
38,49:3
38,50:8
38,52:1
39,2:2
39,4:6
39,7:11
39,10:9
39,25:7
39,28:2
39,32:11
39,33:7
39,35:1
39,38:1
39,41:11
39,43:6
39,44:3
40,2:2
40,4:6
40,7:11
40,10:9
40,25:7
40,28:2
40,32:11
40,33:7
40,35:1
40,38:1
40,41:11
40,43:6
40,44:3
41,2:9
41,4:5
41,8:11
41,10:2
41,25:4
41,28:9
41,33:4
41,35:10
41,38:10
41,39:11
41,40:11
41,42:11
41,44:8
42,2:2
42,4:6
42,7:11
42,10:9
42,25:7
42,28:2
42,32:11
42,33:7
42,35:1
42,38:1
42,43:6
42,44:3
43,2:4
43,8:6
43,10:3
43,25:1
43,32:5
43,38:5
43,44:3
43,45:2
44,2:1
44,4:3
44,5:5
44,7:8
44,10:6
44,16:2
44,18:4
44,19:8
44,22:6
44,23:3
44,24:2
44,25:4
44,26:2
44,27:8
44,28:1
44,29:6
44,30:3
44,31:2
44,32:8
44,33:4
44,35:2
44,36:9
44,37:9
44,38:2
44,39:3
44,40:3
44,41:8
44,42:3
44,43:3
44,45:1
45,2:2
45,4:2
45,10:5
45,25:3
45,38:3
45,46:3
45,48:3
46,2:1
46,4:5
46,10:8
46,25:6
46,48:6
46,49:3
46,50:8
47,2:1
47,4:5
47,10:8
47,25:6
47,48:6
47,49:3
47,50:8
48,2:5
48,4:1
48,10:2
48,38:6
48,46:6
48,47:6
48,49:3
48,50:2
48,51:6
48,52:5
48,53:5
48,54:1
48,56:1
49,2:2
49,4:2
49,10:5
49,25:3
49,38:3
49,46:3
49,47:3
49,48:3
49,50:5
49,51:3
49,52:2
49,53:2
49,54:2
49,55:3
49,56:2
49,57:3
49,58:3
50,2:7
50,4:3
50,25:2
50,38:8
50,47:8
50,48:2
50,49:5
50,51:8
50,52:7
50,53:7
50,54:3
50,55:2
50,56:3
50,57:2
50,58:2
51,2:1
51,4:5
51,10:8
51,25:6
51,48:6
51,49:3
51,50:8
51,52:1
52,4:4
52,10:7
52,48:5
52,49:2
52,50:7
53,4:4
53,10:7
53,48:5
53,49:2
53,50:7
53,54:4
54,10:3
54,48:1
54,49:2
54,50:3
54,55:1
55,4:1
55,10:2
55,49:3
55,50:2
55,56:1
56,10:3
56,48:1
56,49:2
56,50:3
56,55:1
56,57:1
57,4:1
57,10:2
57,49:3
57,50:2
58,4:1
58,10:2

<setup times backward>
1,4:1
1,5:3
1,7:6
1,10:4
1,18:2
1,19:6
1,22:4
1,23:1
1,27:6
1,30:1
1,32:6
1,33:2
2,1:3
2,4:4
2,5:6
2,6:1
2,7:9
2,9:3
2,10:7
2,11:3
2,12:1
2,13:1
2,14:5
2,15:5
2,16:3
2,17:2
2,18:5
2,19:9
2,20:2
2,21:6
2,22:7
2,23:4
2,24:3
2,26:3
2,27:9
2,29:7
2,30:4
2,32:9
2,33:5
2,34:1
2,36:10
2,37:10
2,41:9
2,43:4
2,44:1
2,45:2
2,48:5
2,49:2
2,50:7
3,1:5
3,2:2
3,4:6
3,5:8
3,6:3
3,7:11
3,9:5
3,10:9
3,11:5
3,12:3
3,13:3
3,14:7
3,15:7
3,16:5
3,17:4
3,18:7
3,19:11
3,20:4
3,23:6
3,24:5
3,25:7
3,28:2
3,32:11
3,33:7
3,35:1
4,5:2
4,7:5
4,14:1
4,15:1
4,18:1
4,19:5
4,21:2
4,22:3
4,25:1
4,27:5
4,29:3
4,32:5
4,33:1
4,36:6
4,37:6
4,41:5
4,48:1
4,50:3
4,55:1
4,57:1
4,58:1
5,7:3
5,10:1
5,19:3
5,22:1
5,27:3
5,29:1
5,32:3
6,1:2
6,4:3
6,5:5
6,7:8
6,9:2
6,10:6
6,11:2
6,14:4
6,15:4
6,16:2
6,17:1
6,18:4
6,19:8
6,20:1
6,21:5
6,22:6
6,25:4
6,26:2
6,27:8
6,29:6
6,30:3
6,32:8
6,33:4
7,36:1
7,37:1
8,1:5
8,2:2
8,4:6
8,5:8
8,6:3
8,7:11
8,9:5
8,10:9
8,11:5
8,12:3
8,13:3
8,14:7
8,15:7
8,16:5
8,17:4
8,18:7
8,19:11
8,20:4
8,21:8
8,22:9
8,23:6
8,24:5
8,25:7
8,26:5
8,27:11
8,28:2
8,29:9
8,30:6
8,31:1
8,32:11
8,33:7
8,34:3
8,35:1
8,36:12
8,37:12
8,38:1
8,41:11
8,43:6
9,4:1
9,5:3
9,7:6
9,10:4
9,18:2
9,19:6
9,22:4
9,23:1
9,27:6
9,30:1
9,32:6
9,33:2
10,7:2
10,19:2
10,27:2
10,32:2
10,36:3
10,37:3
10,41:2
11,4:1
11,5:3
11,7:6
11,10:4
11,18:2
11,19:6
11,22:4
11,23:1
11,27:6
11,30:1
11,32:6
11,33:2
12,1:2
12,4:3
12,5:5
12,7:8
12,9:2
12,10:6
12,11:2
12,14:4
12,15:4
12,16:2
12,18:4
12,19:8
12,22:6
12,23:3
12,24:2
12,27:8
12,30:3
12,32:8
12,33:4
13,1:2
13,4:3
13,5:5
13,7:8
13,9:2
13,10:6
13,11:2
13,14:4
13,15:4
13,16:2
13,18:4
13,19:8
13,22:6
13,23:3
13,24:2
13,27:8
13,30:3
13,32:8
13,33:4
14,5:1
14,7:4
14,10:2
14,19:4
14,22:2
14,27:4
14,32:4
15,5:1
15,7:4
15,10:2
15,19:4
15,22:2
15,27:4
15,32:4
16,4:1
16,5:3
16,7:6
16,10:4
16,14:2
16,15:2
16,21:3
16,22:4
16,25:2
16,27:6
16,29:4
16,30:1
16,32:6
16,33:2
17,1:1
17,4:2
17,5:4
17,7:7
17,9:1
17,10:5
17,11:1
17,14:3
17,15:3
17,16:1
17,18:3
17,19:7
17,22:5
17,23:2
17,24:1
17,27:7
17,30:2
17,32:7
17,33:3
18,5:1
18,7:4
18,10:2
18,21:1
18,22:2
18,27:4
18,29:2
18,32:4
20,1:1
20,4:2
20,5:4
20,7:7
20,9:1
20,10:5
20,11:1
20,14:3
20,15:3
20,16:1
20,18:3
20,19:7
20,22:5
20,23:2
20,24:1
20,27:7
20,30:2
20,32:7
20,33:3
21,7:3
21,10:1
21,19:3
21,22:1
21,27:3
21,32:3
22,7:2
22,19:2
22,32:2
23,5:2
23,7:5
23,10:3
23,14:1
23,15:1
23,18:1
23,19:5
23,21:2
23,22:3
23,25:1
23,27:5
23,29:3
23,32:5
23,33:1
24,4:1
24,5:3
24,7:6
24,10:4
24,14:2
24,15:2
24,18:2
24,19:6
24,21:3
24,22:4
24,23:1
24,25:2
24,27:6
24,29:4
24,30:1
24,32:6
24,33:2
25,5:1
25,7:4
25,10:2
25,19:4
25,21:1
25,22:2
25,27:4
25,29:2
25,32:4
25,36:5
25,37:5
25,41:4
25,50:2
26,4:1
26,5:3
26,7:6
26,10:4
26,14:2
26,15:2
26,18:2
26,19:6
26,21:3
26,22:4
26,23:1
26,25:2
26,27:6
26,30:1
26,32:6
26,33:2
28,1:3
28,4:4
28,5:6
28,6:1
28,7:9
28,9:3
28,10:7
28,11:3
28,12:1
28,13:1
28,14:5
28,15:5
28,16:3
28,17:2
28,18:5
28,19:9
28,20:2
28,21:6
28,22:7
28,23:4
28,24:3
28,25:5
28,26:3
28,27:9
28,29:7
28,30:4
28,34:1
28,36:10
28,37:10
28,41:9
28,44:1
29,7:2
29,19:2
29,27:2
29,32:2
30,5:2
30,7:5
30,10:3
30,14:1
30,15:1
30,18:1
30,19:5
30,21:2
30,22:3
30,25:1
30,27:5
30,29:3
30,32:5
30,33:1
31,1:4
31,2:1
31,4:5
31,5:7
31,6:2
31,7:10
31,9:4
31,10:8
31,11:4
31,12:2
31,13:2
31,14:6
31,15:6
31,16:4
31,17:3
31,18:6
31,19:10
31,20:3
31,21:7
31,22:8
31,23:5
31,24:4
31,25:6
31,26:4
31,27:10
31,28:1
31,29:8
31,30:5
31,32:10
31,33:6
31,34:2
31,44:2
32,36:1
32,37:1
33,5:1
33,7:4
33,10:2
33,19:4
33,21:1
33,22:2
33,27:4
33,29:2
33,32:4
33,36:5
33,37:5
33,41:4
34,1:2
34,4:3
34,5:5
34,7:8
34,9:2
34,10:6
34,11:2
34,14:4
34,15:4
34,16:2
34,17:1
34,18:4
34,19:8
34,20:1
34,21:5
34,22:6
34,23:3
34,24:2
34,25:4
34,26:2
34,27:8
34,29:6
34,30:3
34,32:8
34,33:4
35,1:4
35,2:1
35,4:5
35,5:7
35,6:2
35,7:10
35,9:4
35,10:8
35,11:4
35,12:2
35,13:2
35,14:6
35,15:6
35,16:4
35,17:3
35,18:6
35,19:10
35,20:3
35,21:7
35,22:8
35,23:5
35,24:4
35,25:6
35,26:4
35,27:10
35,28:1
35,29:8
35,30:5
35,32:10
35,33:6
35,34:2
35,36:11
35,37:11
35,41:10
35,44:2
38,1:4
38,2:1
38,4:5
38,5:7
38,6:2
38,7:10
38,9:4
38,10:8
38,11:4
38,12:2
38,13:2
38,14:6
38,15:6
38,16:4
38,17:3
38,18:6
38,19:10
38,20:3
38,21:7
38,22:8
38,23:5
38,24:4
38,25:6
38,26:4
38,27:10
38,28:1
38,29:8
38,30:5
38,32:10
38,33:6
38,34:2
38,36:11
38,37:11
38,41:10
38,43:5
38,44:2
38,45:3
38,48:6
38,49:3
38,50:8
39,1:5
39,2:2
39,4:6
39,5:8
39,6:3
39,7:11
39,9:5
39,10:9
39,11:5
39,12:3
39,13:3
39,14:7
39,15:7
39,16:5
39,17:4
39,18:7
39,19:11
39,20:4
39,21:8
39,22:9
39,23:6
39,24:5
39,25:7
39,26:5
39,27:11
39,28:2
39,29:9
39,30:6
39,31:1
39,32:11
39,33:7
39,34:3
39,35:1
39,36:12
39,37:12
39,38:1
39,41:11
39,44:3
40,1:5
40,2:2
40,4:6
40,5:8
40,6:3
40,7:11
40,9:5
40,10:9
40,11:5
40,12:3
40,13:3
40,14:7
40,15:7
40,16:5
40,17:4
40,18:7
40,19:11
40,20:4
40,21:8
40,22:9
40,23:6
40,24:5
40,25:7
40,26:5
40,27:11
40,28:2
40,29:9
40,30:6
40,31:1
40,32:11
40,33:7
40,34:3
40,35:1
40,36:12
40,37:12
40,38:1
40,41:11
40,44:3
41,36:1
41,37:1
42,1:5
42,2:2
42,4:6
42,5:8
42,6:3
42,7:11
42,9:5
42,10:9
42,11:5
42,12:3
42,13:3
42,14:7
42,15:7
42,16:5
42,17:4
42,18:7
42,19:11
42,20:4
42,21:8
42,22:9
42,23:6
42,24:5
42,25:7
42,26:5
42,27:11
42,28:2
42,29:9
42,30:6
42,31:1
42,32:11
42,33:7
42,34:3
42,35:1
42,36:12
42,37:12
42,38:1
42,41:11
42,44:3
43,5:2
43,7:5
43,10:3
43,14:1
43,15:1
43,18:1
43,19:5
43,21:2
43,22:3
43,25:1
43,27:5
43,29:3
43,32:5
43,33:1
43,36:6
43,37:6
43,41:5
44,1:2
44,4:3
44,5:5
44,7:8
44,9:2
44,10:6
44,11:2
44,14:4
44,15:4
44,16:2
44,17:1
44,18:4
44,19:8
44,20:1
44,21:5
44,22:6
44,23:3
44,24:2
44,25:4
44,26:2
44,27:8
44,29:6
44,30:3
44,32:8
44,33:4
44,36:9
44,37:9
44,41:8
44,43:3
45,1:1
45,4:2
45,5:4
45,7:7
45,9:1
45,10:5
45,11:1
45,14:3
45,15:3
45,16:1
45,18:3
45,19:7
45,21:4
45,22:5
45,23:2
45,24:1
45,25:3
45,26:1
45,27:7
45,29:5
45,30:2
45,32:7
45,33:3
45,36:8
45,37:8
45,41:7
45,43:2
46,1:4
46,2:1
46,4:5
46,5:7
46,6:2
46,7:10
46,9:4
46,10:8
46,11:4
46,12:2
46,13:2
46,14:6
46,15:6
46,16:4
46,17:3
46,18:6
46,19:10
46,20:3
46,21:7
46,22:8
46,23:5
46,24:4
46,25:6
46,26:4
46,27:10
46,28:1
46,29:8
46,30:5
46,32:10
46,33:6
46,34:2
46,36:11
46,37:11
46,41:10
46,43:5
46,44:2
46,45:3
46,48:6
46,49:3
47,1:4
47,2:1
47,4:5
47,5:7
47,6:2
47,7:10
47,9:4
47,10:8
47,11:4
47,12:2
47,13:2
47,14:6
47,15:6
47,16:4
47,17:3
47,18:6
47,19:10
47,20:3
47,21:7
47,22:8
47,23:5
47,24:4
47,25:6
47,26:4
47,27:10
47,28:1
47,29:8
47,30:5
47,32:10
47,33:6
47,34:2
47,36:11
47,37:11
47,41:10
47,43:5
47,44:2
47,45:3
47,48:6
47,49:3
47,50:8
48,5:1
48,7:4
48,10:2
48,19:4
48,21:1
48,22:2
48,27:4
48,29:2
48,32:4
48,36:5
48,37:5
48,41:4
48,50:2
49,1:1
49,4:2
49,5:4
49,7:7
49,9:1
49,10:5
49,11:1
49,14:3
49,15:3
49,16:1
49,18:3
49,19:7
49,21:4
49,22:5
49,23:2
49,24:1
49,25:3
49,26:1
49,27:7
49,29:5
49,30:2
49,32:7
49,33:3
49,36:8
49,37:8
49,41:7
49,43:2
49,48:3
49,50:5
49,54:2
49,55:3
49,56:2
49,57:3
50,7:2
50,19:2
50,27:2
50,32:2
50,36:3
50,37:3
50,41:2
51,1:4
51,2:1
51,4:5
51,5:7
51,6:2
51,7:10
51,9:4
51,10:8
51,11:4
51,12:2
51,13:2
51,14:6
51,15:6
51,16:4
51,17:3
51,18:6
51,19:10
51,20:3
51,21:7
51,22:8
51,23:5
51,24:4
51,25:6
51,26:4
51,27:10
51,28:1
51,29:8
51,30:5
51,32:10
51,33:6
51,34:2
51,36:11
51,37:11
51,41:10
51,43:5
51,44:2
51,45:3
51,48:6
51,49:3
51,50:8
52,1:3
52,4:4
52,5:6
52,6:1
52,7:9
52,9:3
52,10:7
52,11:3
52,12:1
52,13:1
52,14:5
52,15:5
52,16:3
52,17:2
52,18:5
52,19:9
52,20:2
52,21:6
52,22:7
52,23:4
52,24:3
52,25:5
52,26:3
52,27:9
52,29:7
52,30:4
52,32:9
52,33:5
52,34:1
52,36:10
52,37:10
52,41:9
52,43:4
52,44:1
52,45:2
52,48:5
52,49:2
52,50:7
53,1:3
53,4:4
53,5:6
53,6:1
53,7:9
53,9:3
53,10:7
53,11:3
53,12:1
53,13:1
53,14:5
53,15:5
53,16:3
53,17:2
53,18:5
53,19:9
53,20:2
53,21:6
53,22:7
53,23:4
53,24:3
53,25:5
53,26:3
53,27:9
53,29:7
53,30:4
53,32:9
53,33:5
53,34:1
53,36:10
53,37:10
53,41:9
53,43:4
53,44:1
53,45:2
53,48:5
53,49:2
53,50:7
54,5:2
54,7:5
54,10:3
54,14:1
54,15:1
54,18:1
54,19:5
54,21:2
54,22:3
54,25:1
54,27:5
54,29:3
54,32:5
54,33:1
54,36:6
54,37:6
54,41:5
54,48:1
54,50:3
55,5:1
55,7:4
55,10:2
55,19:4
55,21:1
55,22:2
55,27:4
55,29:2
55,32:4
55,36:5
55,37:5
55,41:4
55,50:2
56,5:2
56,7:5
56,10:3
56,14:1
56,15:1
56,18:1
56,19:5
56,21:2
56,22:3
56,25:1
56,27:5
56,29:3
56,32:5
56,33:1
56,36:6
56,37:6
56,41:5
56,48:1
56,50:3
56,55:1
57,5:1
57,7:4
57,10:2
57,19:4
57,21:1
57,22:2
57,27:4
57,29:2
57,32:4
57,36:5
57,37:5
57,41:4
57,50:2
58,5:1
58,7:4
58,10:2
58,19:4
58,21:1
58,22:2
58,27:4
58,29:2
58,32:4
58,36:5
58,37:5
58,41:4
58,50:2

<end>

<optimal SALBP-1 value>
25


<rand seed>
467321153

<Lower Bounds>
Lm1=24
Lms1=24
Lm2=24
Lm3=23
Lm4=24
Best=24

<Optimal Stations (Iterations: 10)>
33
